
******************************************************************************
This program contains Ipopt, a library for large-scale nonlinear optimization.
 Ipopt is released as open source code under the Eclipse Public License (EPL).
         For more information visit http://projects.coin-or.org/Ipopt

This version of Ipopt was compiled from source code available at
    https://github.com/IDAES/Ipopt as part of the Institute for the Design of
    Advanced Energy Systems Process Systems Engineering Framework (IDAES PSE
    Framework) Copyright (c) 2018-2019. See https://github.com/IDAES/idaes-pse.

This version of Ipopt was compiled using HSL, a collection of Fortran codes
    for large-scale scientific computation.  All technical papers, sales and
    publicity material resulting from use of the HSL codes within IPOPT must
    contain the following acknowledgement:
        HSL, a collection of Fortran codes for large-scale scientific
        computation. See http://www.hsl.rl.ac.uk.
******************************************************************************

This is Ipopt version 3.13.2, running with linear solver ma27.

Number of nonzeros in equality constraint Jacobian...:     1782
Number of nonzeros in inequality constraint Jacobian.:        0
Number of nonzeros in Lagrangian Hessian.............:     3193

Total number of variables............................:      620
                     variables with only lower bounds:      124
                variables with lower and upper bounds:      434
                     variables with only upper bounds:        0
Total number of equality constraints.................:      612
Total number of inequality constraints...............:        0
        inequality constraints with only lower bounds:        0
   inequality constraints with lower and upper bounds:        0
        inequality constraints with only upper bounds:        0

iter    objective    inf_pr   inf_du lg(mu)  ||d||  lg(rg) alpha_du alpha_pr  ls
   0  0.0000000e+00 1.65e+00 1.42e-14  -1.0 0.00e+00    -  0.00e+00 0.00e+00   0
   1  8.2803270e+00 9.37e-01 1.62e+03  -1.0 3.94e+04    -  4.03e-01 9.90e-01h  1
   2  9.5958151e+00 4.70e-02 1.84e+02  -1.0 4.10e+03    -  8.06e-01 9.90e-01h  1
   3  9.7047238e+00 8.84e-04 2.17e+03  -1.0 5.33e+02    -  9.68e-01 9.90e-01h  1
   4  8.7611551e+00 1.93e-05 1.31e+05  -1.0 5.90e+03    -  9.77e-01 9.90e-01H  1
   5  8.7471154e+00 1.40e-05 9.67e+08  -1.0 5.34e+03    -  9.82e-01 1.55e-02h  7
   6  8.7331764e+00 9.88e-06 1.94e+09  -1.0 5.36e+03    -  9.90e-01 1.55e-02h  7
   7  8.7196618e+00 1.18e-05 2.92e+09  -1.0 5.28e+03    -  9.94e-01 1.55e-02h  7
   8  8.7180132e+00 1.18e-05 3.96e+09  -1.0 5.20e+03    -  1.00e+00 1.93e-03h 10
   9  8.7163711e+00 1.19e-05 5.00e+09  -1.0 5.19e+03    -  1.00e+00 1.93e-03h 10
iter    objective    inf_pr   inf_du lg(mu)  ||d||  lg(rg) alpha_du alpha_pr  ls
  10  8.7147353e+00 1.19e-05 6.04e+09  -1.0 5.18e+03    -  1.00e+00 1.93e-03h 10
  11  8.7131058e+00 1.19e-05 7.08e+09  -1.0 5.17e+03    -  1.00e+00 1.93e-03h 10
  12  8.7114826e+00 1.19e-05 8.12e+09  -1.0 5.16e+03    -  1.00e+00 1.93e-03h 10
  13  8.7098657e+00 1.19e-05 9.16e+09  -1.0 5.15e+03    -  1.00e+00 1.93e-03h 10
  14  8.7082550e+00 1.19e-05 1.02e+10  -1.0 5.14e+03    -  1.00e+00 1.93e-03h 10
  15  8.2896493e+00 2.03e-02 1.13e+08  -1.0 5.13e+03    -  1.00e+00 9.90e-01w  1
  16  8.2965551e+00 2.28e-04 1.06e+09  -1.0 7.09e+01    -  1.00e+00 9.90e-01w  1
  17  8.2966285e+00 2.28e-06 1.06e+11  -1.0 7.11e-01    -  1.00e+00 9.90e-01h  1
In iteration 17, 31 Slacks too small, adjusting variable bounds
  18  8.2966292e+00 2.28e-08 1.06e+13  -1.0 7.11e-03    -  1.00e+00 9.90e-01h  1
  19  8.2966292e+00 1.50e-11 1.00e-06  -1.0 7.11e-05    -  1.00e+00 1.00e+00h  1
iter    objective    inf_pr   inf_du lg(mu)  ||d||  lg(rg) alpha_du alpha_pr  ls
  20  8.2966203e+00 8.06e-09 1.04e+13  -9.0 3.29e+02    -  9.64e-01 2.44e-04f 13
  21  8.2966161e+00 7.30e-09 1.07e+13  -9.0 1.79e+03    -  5.45e-01 1.47e-05f 17
  22  8.2966150e+00 7.03e-09 1.07e+13  -9.0 4.45e+03    -  2.09e-01 1.62e-06f 18
  23  8.2966136e+00 6.77e-09 1.07e+13  -9.0 2.95e+03    -  3.29e-01 2.97e-06f 18
  24  8.2966132e+00 6.75e-09 1.08e+13  -9.0 2.45e+03    -  4.28e-01 1.06e-06f 20
  25  8.1000284e+00 1.52e+02 3.71e+12  -9.0 2.32e+03    -  4.87e-01 6.55e-01f  1
  26  1.0686077e+01 1.53e+02 2.46e+12  -9.0 6.71e+04  -4.0 9.31e-09 3.35e-01h  1
  27r 1.0686077e+01 1.53e+02 1.00e+03   2.2 0.00e+00  -3.6 0.00e+00 3.82e-12R  2
  28r 1.0682248e+01 1.49e+02 5.13e+04   2.2 6.06e+05    -  6.94e-03 1.01e-04f  6
  29r 1.0682277e+01 3.60e+01 5.12e+04   2.2 2.56e+04    -  1.24e-03 5.77e-03f  1
iter    objective    inf_pr   inf_du lg(mu)  ||d||  lg(rg) alpha_du alpha_pr  ls
  30  2.3820689e+01 3.39e+01 1.30e+03  -9.0 3.53e+05    -  6.42e-02 1.03e-01h  2
  31  2.3472385e+01 1.62e+01 4.65e+03  -9.0 6.60e+04  -4.1 5.42e-02 1.78e-02h  2
  32  2.3187361e+01 1.59e+01 7.73e+03  -9.0 6.86e+04  -4.5 8.37e-03 2.10e-02h  2
  33  2.4788181e+01 1.48e+01 4.00e+04  -9.0 8.81e+04  -5.0 4.51e-02 6.88e-02h  1
In iteration 33, 1 Slack too small, adjusting variable bound
  34  2.4811115e+01 1.48e+01 4.00e+04  -9.0 1.31e+05  -5.5 8.20e-02 4.36e-04h  1
  35  2.4985723e+01 1.48e+01 3.97e+04  -9.0 2.56e+07  -6.0 7.38e-04 1.13e-04h  4
  36  3.2693188e+01 2.37e+01 1.38e+12  -9.0 3.13e+05  -5.5 5.02e-02 5.26e-02h  1
In iteration 36, 1 Slack too small, adjusting variable bound
  37  3.2693182e+01 2.37e+01 3.68e+06  -9.0 5.77e+03   3.4 5.18e-04 1.97e-05h  1
In iteration 37, 1 Slack too small, adjusting variable bound
  38  3.2693016e+01 2.34e+01 7.69e+09  -9.0 2.02e+02   2.5 2.64e-08 1.06e-02h  1
  39r 3.2693016e+01 2.34e+01 1.00e+03   1.4 0.00e+00   2.9 0.00e+00 2.55e-08R  2
iter    objective    inf_pr   inf_du lg(mu)  ||d||  lg(rg) alpha_du alpha_pr  ls
  40r 3.2693188e+01 1.12e+01 9.94e+02   1.4 1.08e+04    -  9.87e-03 1.80e-03f  1
  41  9.4617033e+01 3.16e+01 3.10e+02  -9.0 2.09e+05    -  5.27e-04 3.59e-01h  1
In iteration 41, 1 Slack too small, adjusting variable bound
  42  9.5560018e+01 3.14e+01 3.08e+02  -9.0 3.78e+05    -  1.29e-01 6.25e-03h  1
In iteration 42, 1 Slack too small, adjusting variable bound
  43  1.7847556e+02 3.03e+01 5.55e+03  -9.0 3.59e+05    -  1.42e-01 1.75e-01h  1
  44  2.5709375e+02 2.91e+01 8.02e+03  -9.0 1.20e+06    -  1.69e-02 4.07e-02h  3
In iteration 44, 1 Slack too small, adjusting variable bound
  45  1.0967064e+03 2.65e+01 8.41e+03  -9.0 3.06e+06    -  5.86e-02 8.92e-02h  1
  46  1.6580241e+03 2.35e+01 7.84e+03  -9.0 9.12e+05    -  7.96e-02 1.11e-01h  2
  47  1.5860424e+03 2.33e+01 7.78e+03  -9.0 8.18e+06    -  3.87e-02 8.18e-03f  1
  48r 1.5860424e+03 2.33e+01 9.99e+02   1.4 0.00e+00    -  0.00e+00 3.24e-10R  2
  49r 1.5860422e+03 2.33e+01 9.99e+02   1.4 3.38e+09    -  1.60e-11 1.51e-10f  3
iter    objective    inf_pr   inf_du lg(mu)  ||d||  lg(rg) alpha_du alpha_pr  ls
  50r 1.5860413e+03 3.81e+00 9.94e+02   0.7 1.05e+04    -  7.57e-03 2.19e-03f  1
  51  1.6505407e+03 3.77e+00 1.91e+01  -9.0 1.55e+06    -  9.41e-02 1.14e-02h  1
  52  1.6652558e+03 3.74e+00 3.88e+01  -9.0 1.96e+06    -  1.83e-11 7.60e-03h  1
In iteration 52, 1 Slack too small, adjusting variable bound
  53  1.6579694e+03 3.72e+00 5.16e+01  -9.0 2.21e+06    -  6.64e-03 5.05e-03f  1
In iteration 53, 1 Slack too small, adjusting variable bound
  54  1.5983075e+03 3.52e+00 1.69e+02  -9.0 1.92e+06    -  2.90e-03 1.57e-02f  1
In iteration 54, 1 Slack too small, adjusting variable bound
  55  1.5109506e+03 2.40e+00 2.72e+02  -9.0 1.28e+06    -  1.77e-02 3.76e-02f  1
  56  1.4090022e+03 4.86e+00 2.70e+02  -9.0 7.86e+05    -  6.11e-02 5.49e-02f  2
  57  1.3750855e+03 3.93e+00 2.59e+02  -9.0 5.34e+05    -  1.15e-01 1.84e-02f  2
  58  1.3583367e+03 5.92e+00 2.55e+02  -9.0 5.08e+05    -  1.59e-01 9.42e-03f  2
  59  1.3515743e+03 6.51e+00 2.54e+02  -9.0 4.96e+05    -  1.66e-01 3.88e-03f  2
iter    objective    inf_pr   inf_du lg(mu)  ||d||  lg(rg) alpha_du alpha_pr  ls
  60  1.3500092e+03 6.53e+00 2.54e+02  -9.0 4.88e+05    -  2.60e-01 9.13e-04f  3
  61  1.3454981e+03 3.58e+02 2.53e+02  -9.0 4.74e+05    -  3.53e-01 2.76e-03f  1
In iteration 61, 1 Slack too small, adjusting variable bound
  62  1.3455144e+03 3.58e+02 2.53e+02  -9.0 1.39e+06    -  3.10e-01 1.82e-05h  1
  63  1.6729103e+03 3.13e+02 1.57e+03  -9.0 1.44e+06    -  3.60e-01 1.22e-01h  1
In iteration 63, 1 Slack too small, adjusting variable bound
  64  1.7234922e+03 3.11e+02 1.56e+03  -9.0 1.68e+06    -  1.41e-01 6.54e-03h  1
In iteration 64, 1 Slack too small, adjusting variable bound
  65  3.2748062e+03 2.59e+02 2.27e+03  -9.0 1.34e+06    -  1.96e-01 1.65e-01h  1
In iteration 65, 1 Slack too small, adjusting variable bound
  66  9.8477011e+03 1.55e+02 1.41e+04  -9.0 1.31e+06    -  5.98e-01 4.10e-01h  1
  67r 9.8477011e+03 1.55e+02 9.99e+02   2.2 0.00e+00   2.4 0.00e+00 5.29e-11R  2
  68r 9.8477011e+03 1.47e+02 9.96e+02   2.2 1.50e+05    -  3.10e-03 5.40e-05f  1
  69r 9.8477056e+03 1.39e+01 2.17e+03   0.8 3.53e+04    -  7.78e-03 4.11e-03f  1
iter    objective    inf_pr   inf_du lg(mu)  ||d||  lg(rg) alpha_du alpha_pr  ls
  70  5.9681488e+03 2.99e+01 2.22e+03  -9.0 1.03e+06    -  2.68e-01 3.97e-01f  1
  71  5.9938212e+03 2.96e+01 2.19e+03  -9.0 1.72e+06    -  1.24e-08 1.10e-02h  1
  72  6.3465425e+03 2.77e+01 1.91e+03  -9.0 1.45e+06    -  3.62e-01 6.39e-02h  2
  73  8.1628922e+03 1.71e+01 9.84e+13  -9.0 7.45e+05    -  5.05e-02 3.83e-01h  1
MA27BD returned iflag=-4 and requires more memory.
 Increase liw from 34795 to 69590 and la from 37195 to 74640 and factorize again.
WARNING: Problem in step computation; switching to emergency mode.
  74r 8.1628922e+03 1.71e+01 9.99e+02   1.2 0.00e+00  19.8 0.00e+00 0.00e+00R  1
  75r 8.1629081e+03 1.50e+01 2.68e+03   1.2 8.79e+03    -  3.92e-03 1.47e-03f  1
  76  8.1628920e+03 1.63e+01 5.11e+11  -9.0 2.49e+11    -  1.06e-10 5.61e-10f  2
  77  8.1628834e+03 1.50e+01 2.76e+19  -9.0 1.15e+06  -4.5 4.54e-04 3.29e-06h  1
Scaling factors are invalid - setting them all to 1.
Scaling factors are invalid - setting them all to 1.
Scaling factors are invalid - setting them all to 1.
Scaling factors are invalid - setting them all to 1.
Scaling factors are invalid - setting them all to 1.
Scaling factors are invalid - setting them all to 1.
Scaling factors are invalid - setting them all to 1.
Scaling factors are invalid - setting them all to 1.
Scaling factors are invalid - setting them all to 1.
Scaling factors are invalid - setting them all to 1.
Scaling factors are invalid - setting them all to 1.
MA27BD returned iflag=-4 and requires more memory.
 Increase liw from 69590 to 139180 and la from 74640 to 154114 and factorize again.
Scaling factors are invalid - setting them all to 1.
Scaling factors are invalid - setting them all to 1.
Scaling factors are invalid - setting them all to 1.
Scaling factors are invalid - setting them all to 1.
Scaling factors are invalid - setting them all to 1.
Scaling factors are invalid - setting them all to 1.
Scaling factors are invalid - setting them all to 1.
Scaling factors are invalid - setting them all to 1.
Scaling factors are invalid - setting them all to 1.
Scaling factors are invalid - setting them all to 1.
Scaling factors are invalid - setting them all to 1.
Scaling factors are invalid - setting them all to 1.
Scaling factors are invalid - setting them all to 1.
WARNING: Problem in step computation; switching to emergency mode.
  78r 8.1628834e+03 1.50e+01 9.99e+02   1.2 0.00e+00  19.2 0.00e+00 0.00e+00R  1
  79r 8.1628834e+03 3.70e+01 9.99e+02   1.2 4.56e+08    -  5.06e-08 7.74e-12f  5
iter    objective    inf_pr   inf_du lg(mu)  ||d||  lg(rg) alpha_du alpha_pr  ls
  80r 8.1628811e+03 2.01e+01 9.98e+02   1.2 1.54e+04    -  7.61e-03 9.65e-04f  1
  81r 8.1628735e+03 1.12e+01 1.73e+11   1.2 1.37e+03    -  6.75e-03 4.05e-03f  1
  82  8.1180171e+03 1.68e+01 1.44e+02  -9.0 1.17e+06    -  1.07e-01 4.20e-03f  1
  83  8.0204715e+03 1.64e+01 1.41e+02  -9.0 1.30e+06    -  2.01e-02 1.15e-02f  1
  84r 8.0204715e+03 1.64e+01 9.99e+02   1.2 0.00e+00    -  0.00e+00 1.85e-12R  4
  85r 8.0204696e+03 1.64e+01 1.44e+06   1.2 6.40e+10    -  1.52e-09 1.12e-10f  3
  86r 8.0204696e+03 2.32e+02 2.18e+13   1.2 4.35e+01   4.4 3.01e-01 3.10e-01f  1
  87r 8.0204696e+03 1.63e+02 9.72e+10   1.2 9.34e-01   8.9 1.94e-01 3.00e-01h  1
  88r 8.0204696e+03 1.62e+02 1.01e+11   1.2 4.97e+00   8.4 4.04e-03 2.83e-03h  1
  89r 8.0204696e+03 1.62e+02 1.01e+11   1.2 6.53e-01   8.8 0.00e+00 4.15e-07R 12
iter    objective    inf_pr   inf_du lg(mu)  ||d||  lg(rg) alpha_du alpha_pr  ls
  90r 8.0204696e+03 1.62e+02 3.79e+07   1.2 2.21e-05   8.4 9.90e-01 1.00e+00f  1
  91r 8.0204696e+03 1.62e+02 8.67e+08   1.2 1.56e-02   7.9 5.96e-01 9.18e-03h  1
  92r 8.0204696e+03 1.62e+02 1.19e+09   1.2 1.47e-01   7.4 1.69e-01 2.10e-01h  1
  93r 8.0204696e+03 1.62e+02 3.94e+14   1.2 1.11e-01   6.9 9.91e-01 1.00e+00f  1
WARNING: Problem in step computation; switching to emergency mode.
  94r 8.0204696e+03 1.62e+02 3.94e+14   1.2 1.11e-01  18.6 0.00e+00 0.00e+00R  1
WARNING: Problem in step computation; switching to emergency mode.
Restoration phase is called at point that is almost feasible,
  with constraint violation 0.000000e+00. Abort.
Restoration phase in the restoration phase failed.

Number of Iterations....: 94

                                   (scaled)                 (unscaled)
Objective...............:   8.0204695596728952e+03    8.0204695596728952e+03
Dual infeasibility......:   3.9388155061347588e+14    3.9388155061347588e+14
Constraint violation....:   1.6213004636365096e+02    1.6213004636365096e+02
Complementarity.........:   1.2686563353067565e+02    1.2686563353067565e+02
Overall NLP error.......:   4.7102625659559280e+10    3.9388155061347588e+14


Number of objective function evaluations             = 391
Number of objective gradient evaluations             = 79
Number of equality constraint evaluations            = 392
Number of inequality constraint evaluations          = 0
Number of equality constraint Jacobian evaluations   = 101
Number of inequality constraint Jacobian evaluations = 0
Number of Lagrangian Hessian evaluations             = 95
Total CPU secs in IPOPT (w/o function evaluations)   =      0.392
Total CPU secs in NLP function evaluations           =      3.489

EXIT: Restoration Failed!
